&CONTROL
    calculation = 'relax'
    prefix='M11.tmp',
    pseudo_dir = './',
    restart_mode='from_scratch',
    outdir='./save/'
    disk_io='low'
    tstress = .true.
    tprnfor = .true.
    forc_conv_thr=1.0D-4
    etot_conv_thr=1.0d-6
    nstep=5
    verbosity = 'high'
/
&SYSTEM
    ibrav=0, 
    celldm(1)=1.889726,
    nat=130, 
    ntyp=4,
    ecutwfc =36,
    ecutrho =288,
    nbnd = 280,
/
&ELECTRONS
   mixing_mode = 'plain'
   mixing_beta = 0.7
   mixing_ndim = 10
   conv_thr =  1.0D-8
   electron_maxstep=250
/
&IONS
  trust_radius_max = 0.8D0
  trust_radius_min = 1.D-3
/
&CELL
cell_dynamics= 'bfgs'
press =0.0D0
/

ATOMIC_SPECIES
O 15.9994 O.pbe-soft.UPF
Zn 65.38 Zn.pbe.UPF
C 12.011 C.pbe.UPF
H 1.0079 H.pbe.UPF

CELL_PARAMETERS (alat)
  18.482362460  -0.100229901  -0.069965923
   9.154487685  15.879640641  -0.006585234
   9.155050392   5.286906904  14.775938348

ATOMIC_POSITIONS (crystal)
H        0.780572794   0.391414484   0.173178236
H        0.719506087   0.108668576   0.326743259
H        0.772624258   0.176665986   0.396227085
H        0.904352246   0.219666402   0.225256693
H        0.727454740   0.323419207   0.103693871
H        0.595726451   0.280418134   0.274663691
H        0.217213272   0.825689651   0.347816976
H        0.282803657   0.674306084   0.152175203
H        0.218837096   0.608191758   0.343886240
H        0.093328883   0.781180720   0.341476867
H        0.281180794   0.891802117   0.156106278
H        0.406686645   0.718814184   0.158516201
H        0.180154635   0.392233439   0.650230593
H        0.319934755   0.107672540   0.849693153
H        0.391725269   0.173489916   0.657288551
H        0.223992860   0.220880044   0.648428167
H        0.108365162   0.326414060   0.842636653
H        0.276097127   0.279024305   0.851498245
H        0.214335939   0.610956624   0.827938558
H        0.285581676   0.888966876   0.672145324
H        0.219409173   0.830668277   0.606921572
H        0.092846270   0.786819202   0.782502211
H        0.280510498   0.669251822   0.893160000
H        0.407072416   0.713102004   0.717581417
H        0.779528017   0.176428206   0.652036394
H        0.720463533   0.323588834   0.847971625
H        0.774412521   0.394497915   0.655441624
H        0.904580321   0.225689676   0.649471243
H        0.725579994   0.105520518   0.844565945
H        0.595416189   0.274324776   0.850537630
H        0.826470699   0.610866997   0.347662330
H        0.673448884   0.889207754   0.152409591
H        0.611018838   0.828727036   0.344056945
H        0.783372289   0.786484742   0.339661891
H        0.888903122   0.671349029   0.156012709
H        0.716548100   0.713591629   0.160410640
C        0.862393355   0.141238246   0.856481780
C        0.139213235   0.141972535   0.855609137
C        0.142129219   0.860074210   0.138908515
C        0.859139422   0.859885722   0.137136792
C        0.862886137   0.138691853   0.142426211
C        0.143703253   0.858516316   0.860350586
C        0.767751238   0.327923505   0.206623213
C        0.806026695   0.196407525   0.198809458
C        0.732327041   0.172159832   0.293298578
C        0.763355329   0.208532770   0.330563125
C        0.835602138   0.233477360   0.236550873
C        0.736723591   0.291550414   0.169357980
C        0.694051352   0.303675112   0.301111943
C        0.664476952   0.266605633   0.263369764
C        0.231263961   0.792635766   0.303893967
C        0.200679370   0.803049201   0.194343137
C        0.268751817   0.707359610   0.196098810
C        0.232205464   0.671538134   0.301789598
C        0.163696877   0.766512649   0.301675698
C        0.267810468   0.828456931   0.198203038
C        0.299336410   0.696946504   0.305649217
C        0.336318744   0.733482468   0.198317248
C        0.210465353   0.328332257   0.695172466
C        0.196923561   0.198321791   0.798443658
C        0.289624441   0.171574192   0.804751909
C        0.328075450   0.206772556   0.699067636
C        0.235908102   0.234116449   0.693068719
C        0.172015409   0.293133906   0.800856436
C        0.303166014   0.301584497   0.701482330
C        0.264181812   0.265789118   0.806856624
C        0.357881713   0.639921576   0.361088443
C        0.360861998   0.357947723   0.644331218
C        0.637598989   0.358775424   0.643527239
C        0.640797052   0.640176566   0.362927784
C        0.356225706   0.641418926   0.639718485
C        0.637178726   0.361377976   0.357507944
C        0.229663297   0.673100420   0.793915724
C        0.201599435   0.801682096   0.803186414
C        0.270256006   0.826822306   0.706165679
C        0.232529411   0.795329457   0.670844559
C        0.163404664   0.769656396   0.767238407
C        0.267389512   0.704593232   0.829237255
C        0.298320129   0.698240706   0.696895043
C        0.336514138   0.730266611   0.732843706
C        0.767132175   0.208458308   0.696145885
C        0.805658565   0.198429127   0.799113219
C        0.732862589   0.291558522   0.803860803
C        0.764337319   0.329602179   0.698113128
C        0.835691935   0.236837844   0.693658261
C        0.735657383   0.170415142   0.801893270
C        0.694335680   0.301588304   0.700894179
C        0.664303560   0.263178751   0.806348335
C        0.792987986   0.673057561   0.303884829
C        0.802175629   0.802756968   0.193365140
C        0.706934697   0.827018459   0.196185582
C        0.673121153   0.794308237   0.301847437
C        0.767739864   0.769467520   0.300702273
C        0.826801347   0.705767144   0.198223247
C        0.697747617   0.697318177   0.306705251
C        0.732182842   0.730608513   0.199368513
O        0.120150194   0.944228480   0.818752838
O        0.119278165   0.818347479   0.947218316
O        0.947079329   0.114336753   0.816387515
O        0.822196635   0.122132166   0.943105934
O        0.116240152   0.119906470   0.942325300
O        0.116226582   0.119021847   0.815518989
O        0.999826848  -0.000144056   0.000273059
O        0.114636035   0.819587021   0.121317475
O        0.121284754   0.945868428   0.114078606
O        0.943801091   0.819457719   0.117082138
O        0.819964674   0.945661800   0.114284818
O        0.822453239   0.114999370   0.120814621
O        0.947750078   0.116631873   0.118821088
O        0.552317700   0.383421660   0.381107930
O        0.677593683   0.385069943   0.379141814
O        0.378735193   0.554126757   0.385909039
O        0.385357373   0.680409301   0.378698079
O        0.383825895   0.380898240   0.684442587
O        0.383839663   0.380031777   0.557612841
O        0.500174758   0.500142293   0.499730623
O        0.677798660   0.377896310   0.556901923
O        0.552912275   0.385657101   0.683621347
O        0.679989486   0.554402886   0.385759395
O        0.556131788   0.680586434   0.382997274
O        0.380653545   0.681606016   0.552853772
O        0.379787404   0.555703558   0.681297486
Zn       0.044014183   0.043067654   0.866717925
Zn       0.042347157   0.867791833   0.046098476
Zn       0.869198220   0.044488862   0.044007563
Zn       0.044561296   0.044332530   0.043267536
Zn       0.455473775   0.455664112   0.456704614
Zn       0.630803517   0.455543550   0.455998493
Zn       0.457618308   0.632206002   0.453944882
Zn       0.455979816   0.456897078   0.633286396

K_POINTS (automatic)
1 1 1  0 0 0       
